p cnf 7230 17
-6045 -6161 6282 0
-6069 -6179 -6287 0
-6049 -6165 -6285 0
-6047 -6163 -6283 0
6069 -6288 0
6049 -6286 0
6047 -6284 0
6287 6288 0
6285 6286 0
6283 6284 0
6179 -6288 0
6165 -6286 0
6163 -6284 0
-6281 -6282 0
6181 -6290 0
6071 -6290 0
6281 6282 0
